* ENCODING=ISO-8859-1
NAME          CPLEX
ROWS
 N  obj1    
 G  c1      
 G  c2      
 G  c3      
 G  c4      
 G  c5      
 G  c6      
 G  c7      
 G  c8      
 G  c9      
 G  c10     
 G  c11     
 G  c12     
 G  c13     
 G  c14     
 G  c15     
 G  c16     
 G  c17     
 G  c18     
 G  c19     
 G  c20     
 G  c21     
 G  c22     
 G  c23     
 G  c24     
 G  c25     
 G  c26     
 G  c27     
 G  c28     
 G  c29     
 G  c30     
 G  c31     
 G  c32     
 G  c33     
 G  c34     
 G  c35     
 G  c36     
 G  c37     
 G  c38     
 G  c39     
 G  c40     
 G  c41     
 G  c42     
 G  c43     
 G  c44     
 G  c45     
 G  c46     
 G  c47     
 G  c48     
 G  c49     
 G  c50     
 G  c51     
 G  c52     
 G  c53     
 G  c54     
 G  c55     
 G  c56     
 G  c57     
 G  c58     
 G  c59     
 G  c60     
COLUMNS
    MARK0000  'MARKER'                 'INTORG'
    x1        obj1                            1
    x1        c2                            154
    x1        c20                           982
    x1        c27                           577
    x1        c28                           660
    x1        c35                           677
    x1        c52                           710
    x1        c59                           797
    x2        obj1                            1
    x2        c4                            426
    x2        c11                           423
    x2        c13                           910
    x2        c20                           793
    x2        c23                           415
    x2        c26                           278
    x2        c60                           469
    x3        obj1                            1
    x3        c4                            657
    x3        c21                           428
    x3        c32                           906
    x3        c35                           120
    x3        c48                           306
    x3        c50                           141
    x3        c53                           597
    x4        obj1                            1
    x4        c5                            668
    x4        c33                           957
    x4        c45                           546
    x4        c56                           190
    x5        obj1                            1
    x5        c3                            535
    x5        c4                            935
    x5        c30                           726
    x5        c35                           184
    x5        c38                           581
    x6        obj1                            1
    x6        c2                            237
    x6        c43                           988
    x6        c49                           299
    x6        c57                           912
    x6        c59                           465
    x6        c60                           544
    x7        obj1                            1
    x7        c13                           390
    x7        c17                           973
    x7        c20                           166
    x7        c35                           455
    x7        c57                           853
    x8        obj1                            1
    x8        c23                           924
    x8        c38                           507
    x8        c54                           991
    x9        obj1                            1
    x9        c22                           563
    x9        c49                           934
    x10       obj1                            1
    x10       c3                            145
    x10       c6                            464
    x10       c20                           468
    x10       c25                           261
    x10       c30                           565
    x10       c36                           442
    x10       c39                           637
    x11       obj1                            1
    x11       c1                            313
    x11       c4                            112
    x11       c6                            742
    x11       c23                           567
    x11       c40                           736
    x11       c51                           670
    x12       obj1                            1
    x12       c15                           422
    x13       obj1                            1
    x13       c4                            683
    x13       c8                            987
    x13       c24                           437
    x13       c30                           429
    x14       obj1                            1
    x14       c1                            685
    x14       c3                            392
    x14       c49                           321
    x14       c51                           504
    x14       c56                           107
    x15       obj1                            1
    x15       c7                            989
    x15       c8                            397
    x15       c15                           916
    x15       c39                           483
    x16       obj1                            1
    x16       c18                           845
    x16       c32                           414
    x16       c34                           311
    x16       c47                           971
    x16       c52                           358
    x17       obj1                            1
    x17       c15                           888
    x17       c19                           548
    x17       c21                           223
    x17       c41                           661
    x17       c56                           419
    x18       obj1                            1
    x18       c7                            547
    x18       c12                           569
    x18       c20                           722
    x18       c27                           307
    x18       c35                           931
    x18       c36                           930
    x18       c42                           460
    x18       c48                           158
    x19       obj1                            1
    x19       c7                            114
    x19       c18                           619
    x19       c32                           389
    x19       c35                           467
    x19       c41                           641
    x19       c52                           565
    x20       obj1                            1
    x20       c7                            589
    x20       c8                            204
    x20       c11                           117
    x20       c16                           518
    x20       c43                           657
    x20       c49                           840
    x21       obj1                            1
    x21       c14                           588
    x21       c17                           450
    x21       c22                           390
    x21       c24                           604
    x21       c26                           101
    x21       c29                           196
    x21       c47                           682
    x22       obj1                            1
    x22       c16                           817
    x22       c41                           677
    x22       c47                           887
    x22       c49                           514
    x23       obj1                            1
    x23       c3                            771
    x23       c10                           391
    x23       c29                           406
    x23       c31                           820
    x23       c43                           232
    x23       c52                           546
    x23       c53                           571
    x23       c56                           591
    x23       c59                           686
    x24       obj1                            1
    x24       c12                           756
    x24       c55                           740
    x25       obj1                            1
    x25       c16                           693
    x25       c19                           528
    x25       c21                           210
    x25       c26                           254
    x25       c28                           332
    x25       c55                           461
    x25       c56                           694
    x26       obj1                            1
    x26       c2                            241
    x26       c12                           522
    x26       c15                           233
    x26       c33                           614
    x26       c44                           375
    x26       c54                           775
    x27       obj1                            1
    x27       c25                           684
    x27       c39                           791
    x27       c45                           316
    x27       c51                           456
    x28       obj1                            1
    x28       c9                            232
    x28       c25                           586
    x28       c28                           180
    x28       c29                           612
    x28       c30                           898
    x28       c41                           829
    x28       c50                           730
    x28       c58                           676
    x29       obj1                            1
    x29       c2                            539
    x29       c7                            265
    x29       c12                           769
    x29       c26                           591
    x29       c41                           192
    x29       c49                           722
    x30       obj1                            1
    x30       c7                            650
    x30       c17                           527
    x30       c19                           886
    x30       c36                           985
    x30       c37                           690
    x30       c52                           710
    x31       obj1                            1
    x31       c2                            337
    x31       c5                            333
    x31       c7                            622
    x31       c11                           909
    x31       c26                           902
    x31       c28                           569
    x31       c39                           164
    x31       c40                           667
    x31       c41                           395
    x32       obj1                            1
    x32       c5                            675
    x32       c13                           853
    x32       c16                           831
    x32       c37                           860
    x32       c42                           464
    x32       c44                           456
    x32       c51                           633
    x32       c53                           843
    x33       obj1                            1
    x33       c18                           780
    x33       c26                           457
    x33       c31                           408
    x33       c38                           229
    x33       c46                           606
    x33       c53                           362
    x34       obj1                            1
    x34       c1                            185
    x34       c10                           281
    x34       c16                           386
    x34       c24                           113
    x34       c27                           867
    x34       c28                           225
    x34       c33                           612
    x35       obj1                            1
    x35       c3                            819
    x35       c31                           428
    x35       c38                           847
    x35       c42                           911
    x36       obj1                            1
    x36       c1                            282
    x36       c8                            946
    x36       c43                           356
    x36       c53                           252
    x37       obj1                            1
    x37       c15                           101
    x37       c44                           184
    x37       c54                           218
    x37       c57                           153
    x38       obj1                            1
    x38       c18                           509
    x38       c19                           358
    x38       c20                           493
    x38       c38                           738
    x38       c40                           791
    x39       obj1                            1
    x39       c14                           248
    x39       c17                           202
    x39       c18                           823
    x39       c21                           714
    x39       c28                           569
    x39       c33                           170
    x39       c52                           549
    x40       obj1                            1
    x40       c14                           927
    x40       c33                           268
    x40       c47                           111
    x41       obj1                            1
    x41       c6                            599
    x41       c16                           243
    x41       c26                           237
    x41       c41                           549
    x41       c50                           153
    x42       obj1                            1
    x42       c8                            593
    x42       c10                           310
    x42       c18                           503
    x42       c31                           204
    x42       c37                           944
    x42       c47                           601
    x42       c53                           758
    x42       c59                           968
    x43       obj1                            1
    x43       c12                           141
    x43       c44                           776
    x44       obj1                            1
    x44       c5                            597
    x44       c8                            492
    x44       c10                           333
    x44       c36                           314
    x44       c40                           728
    x45       obj1                            1
    x45       c18                           698
    x45       c33                           951
    x45       c34                           882
    x45       c43                           488
    x45       c51                           581
    x46       obj1                            1
    x46       c35                           951
    x47       obj1                            1
    x47       c1                            287
    x47       c8                            538
    x47       c10                           463
    x47       c13                           779
    x47       c30                           593
    x47       c36                           381
    x47       c43                           622
    x47       c46                           160
    x48       obj1                            1
    x48       c5                            722
    x48       c11                           815
    x48       c13                           864
    x48       c31                           283
    x48       c32                           396
    x48       c45                           289
    x49       obj1                            1
    x49       c39                           509
    x49       c48                           718
    x49       c54                           882
    x50       obj1                            1
    x50       c16                           599
    x50       c23                           419
    x50       c27                           669
    x50       c34                           699
    x50       c42                           480
    x50       c45                           412
    x50       c59                           206
    x51       obj1                            1
    x51       c4                            223
    x51       c12                           463
    x51       c21                           140
    x51       c49                           568
    x51       c56                           828
    x51       c58                           931
    x52       obj1                            1
    x52       c19                           360
    x52       c25                           975
    x52       c31                          1000
    x52       c47                           227
    x52       c49                           105
    x52       c51                           874
    x53       obj1                            1
    x53       c6                            901
    x53       c33                           300
    x53       c42                           778
    x53       c52                           758
    x53       c54                           982
    x54       obj1                            1
    x54       c10                           907
    x54       c13                           984
    x54       c20                           382
    x54       c24                           577
    x54       c25                           158
    x54       c28                           200
    x54       c37                           687
    x54       c39                           311
    x54       c53                           766
    x55       obj1                            1
    x55       c5                            430
    x55       c6                            668
    x55       c8                            267
    x55       c9                            551
    x55       c16                           884
    x55       c60                           138
    x56       obj1                            1
    x56       c11                           156
    x56       c21                           178
    x56       c26                           844
    x56       c29                           276
    x56       c41                           921
    x56       c58                           830
    x57       obj1                            1
    x57       c24                           945
    x57       c27                           715
    x57       c58                           249
    x58       obj1                            1
    x58       c9                            267
    x58       c10                           742
    x58       c11                           644
    x58       c13                           685
    x58       c28                           999
    x58       c31                           557
    x58       c35                           159
    x58       c39                           788
    x58       c42                           826
    x58       c46                           227
    x58       c50                           663
    x58       c51                           548
    x58       c55                           480
    x58       c56                           520
    x58       c57                           161
    x59       obj1                            1
    x59       c15                           503
    x59       c20                           760
    x59       c25                           943
    x59       c51                           550
    x60       obj1                            1
    x60       c11                           202
    x60       c22                           131
    x60       c27                           363
    x60       c54                           482
    x60       c57                           693
    MARK0001  'MARKER'                 'INTEND'
RHS
    rhs       c1                            876
    rhs       c2                            754
    rhs       c3                           1331
    rhs       c4                           1518
    rhs       c5                           1713
    rhs       c6                           1687
    rhs       c7                           1888
    rhs       c8                           2212
    rhs       c9                            525
    rhs       c10                          1714
    rhs       c11                          1633
    rhs       c12                          1610
    rhs       c13                          2733
    rhs       c14                           882
    rhs       c15                          1532
    rhs       c16                          2486
    rhs       c17                          1076
    rhs       c18                          2389
    rhs       c19                          1340
    rhs       c20                          2383
    rhs       c21                           947
    rhs       c22                           542
    rhs       c23                          1163
    rhs       c24                          1338
    rhs       c25                          1804
    rhs       c26                          1832
    rhs       c27                          1749
    rhs       c28                          1867
    rhs       c29                           745
    rhs       c30                          1606
    rhs       c31                          1850
    rhs       c32                          1053
    rhs       c33                          1936
    rhs       c34                           946
    rhs       c35                          1972
    rhs       c36                          1526
    rhs       c37                          1591
    rhs       c38                          1451
    rhs       c39                          1842
    rhs       c40                          1461
    rhs       c41                          2433
    rhs       c42                          1960
    rhs       c43                          1672
    rhs       c44                           896
    rhs       c45                           782
    rhs       c46                           497
    rhs       c47                          1740
    rhs       c48                           591
    rhs       c49                          2152
    rhs       c50                           844
    rhs       c51                          2408
    rhs       c52                          2098
    rhs       c53                          2075
    rhs       c54                          2165
    rhs       c55                           841
    rhs       c56                          1675
    rhs       c57                          1386
    rhs       c58                          1343
    rhs       c59                          1561
    rhs       c60                           576
BOUNDS
 LI bnd       x1        0
 LI bnd       x2        0
 LI bnd       x3        0
 LI bnd       x4        0
 LI bnd       x5        0
 LI bnd       x6        0
 LI bnd       x7        0
 LI bnd       x8        0
 LI bnd       x9        0
 LI bnd       x10       0
 LI bnd       x11       0
 LI bnd       x12       0
 LI bnd       x13       0
 LI bnd       x14       0
 LI bnd       x15       0
 LI bnd       x16       0
 LI bnd       x17       0
 LI bnd       x18       0
 LI bnd       x19       0
 LI bnd       x20       0
 LI bnd       x21       0
 LI bnd       x22       0
 LI bnd       x23       0
 LI bnd       x24       0
 LI bnd       x25       0
 LI bnd       x26       0
 LI bnd       x27       0
 LI bnd       x28       0
 LI bnd       x29       0
 LI bnd       x30       0
 LI bnd       x31       0
 LI bnd       x32       0
 LI bnd       x33       0
 LI bnd       x34       0
 LI bnd       x35       0
 LI bnd       x36       0
 LI bnd       x37       0
 LI bnd       x38       0
 LI bnd       x39       0
 LI bnd       x40       0
 LI bnd       x41       0
 LI bnd       x42       0
 LI bnd       x43       0
 LI bnd       x44       0
 LI bnd       x45       0
 LI bnd       x46       0
 LI bnd       x47       0
 LI bnd       x48       0
 LI bnd       x49       0
 LI bnd       x50       0
 LI bnd       x51       0
 LI bnd       x52       0
 LI bnd       x53       0
 LI bnd       x54       0
 LI bnd       x55       0
 LI bnd       x56       0
 LI bnd       x57       0
 LI bnd       x58       0
 LI bnd       x59       0
 LI bnd       x60       0
ENDATA
